param set_len = 18;
param target_sum = 29798373;
param values := [0] 3215508 [1] 1319397 [2] 2425056 [3] 3638308 [4] 4682318 [5] 5821226 [6] 5286018 [7] 614525 [8] 7585296 [9] 12094 [10] 382861 [11] 7363968 [12] 1041360 [13] 185100 [14] 290817 [15] 6456002 [16] 1277968 [17] 8099820 ;
